p cnf 25 15
2 11 -12 13 0
-22 -24 2 -6 19 -16 15 -4 7 17 -8 12 1 -18 -13 -23 -9 21 -25 5 10 14 0
21 -2 25 0
-7 4 -10 -21 0
5 -22 13 0
-10 1 18 0
-4 -8 14 11 0
-22 -10 0
24 -8 -5 0
13 3 0
2 19 24 12 -7 17 -14 -9 5 -23 0
-25 -16 -3 -15 0
-23 21 -4 0
19 10 25 0
5 10 20 17 0
